\ Model maximum_independent_set
\ LP format - for model browsing. Use MPS format to capture full model detail.
\ Signature: 0x40aa32ca7933012b
Maximize
  x[0] + x[1] + x[2] + x[3] + x[4] + x[5] + x[6] + x[7] + x[8] + x[9]
   + x[10] + x[11] + x[12] + x[13] + x[14] + x[15] + x[16] + x[17] + x[18]
   + x[19] + x[20] + x[21] + x[22] + x[23] + x[24] + x[25] + x[26] + x[27]
   + x[28] + x[29] + x[30] + x[31] + x[32] + x[33] + x[34] + x[35]
Subject To
 edge_0_1: x[0] + x[1] <= 1
 edge_0_4: x[0] + x[4] <= 1
 edge_0_6: x[0] + x[6] <= 1
 edge_0_12: x[0] + x[12] <= 1
 edge_0_15: x[0] + x[15] <= 1
 edge_0_19: x[0] + x[19] <= 1
 edge_0_22: x[0] + x[22] <= 1
 edge_0_27: x[0] + x[27] <= 1
 edge_0_28: x[0] + x[28] <= 1
 edge_0_29: x[0] + x[29] <= 1
 edge_0_32: x[0] + x[32] <= 1
 edge_0_35: x[0] + x[35] <= 1
 edge_1_2: x[1] + x[2] <= 1
 edge_1_8: x[1] + x[8] <= 1
 edge_1_11: x[1] + x[11] <= 1
 edge_1_14: x[1] + x[14] <= 1
 edge_1_23: x[1] + x[23] <= 1
 edge_1_25: x[1] + x[25] <= 1
 edge_1_26: x[1] + x[26] <= 1
 edge_1_29: x[1] + x[29] <= 1
 edge_1_31: x[1] + x[31] <= 1
 edge_2_3: x[2] + x[3] <= 1
 edge_2_6: x[2] + x[6] <= 1
 edge_2_9: x[2] + x[9] <= 1
 edge_2_12: x[2] + x[12] <= 1
 edge_2_22: x[2] + x[22] <= 1
 edge_2_25: x[2] + x[25] <= 1
 edge_2_28: x[2] + x[28] <= 1
 edge_2_31: x[2] + x[31] <= 1
 edge_2_35: x[2] + x[35] <= 1
 edge_3_4: x[3] + x[4] <= 1
 edge_3_8: x[3] + x[8] <= 1
 edge_3_11: x[3] + x[11] <= 1
 edge_3_16: x[3] + x[16] <= 1
 edge_3_18: x[3] + x[18] <= 1
 edge_3_27: x[3] + x[27] <= 1
 edge_3_32: x[3] + x[32] <= 1
 edge_4_6: x[4] + x[6] <= 1
 edge_4_7: x[4] + x[7] <= 1
 edge_4_9: x[4] + x[9] <= 1
 edge_4_10: x[4] + x[10] <= 1
 edge_4_11: x[4] + x[11] <= 1
 edge_4_14: x[4] + x[14] <= 1
 edge_4_19: x[4] + x[19] <= 1
 edge_4_21: x[4] + x[21] <= 1
 edge_4_24: x[4] + x[24] <= 1
 edge_4_28: x[4] + x[28] <= 1
 edge_5_6: x[5] + x[6] <= 1
 edge_5_9: x[5] + x[9] <= 1
 edge_5_13: x[5] + x[13] <= 1
 edge_5_14: x[5] + x[14] <= 1
 edge_5_17: x[5] + x[17] <= 1
 edge_5_19: x[5] + x[19] <= 1
 edge_5_20: x[5] + x[20] <= 1
 edge_5_25: x[5] + x[25] <= 1
 edge_5_26: x[5] + x[26] <= 1
 edge_5_30: x[5] + x[30] <= 1
 edge_5_31: x[5] + x[31] <= 1
 edge_5_32: x[5] + x[32] <= 1
 edge_5_34: x[5] + x[34] <= 1
 edge_6_10: x[6] + x[10] <= 1
 edge_6_11: x[6] + x[11] <= 1
 edge_6_12: x[6] + x[12] <= 1
 edge_6_18: x[6] + x[18] <= 1
 edge_6_21: x[6] + x[21] <= 1
 edge_6_24: x[6] + x[24] <= 1
 edge_6_27: x[6] + x[27] <= 1
 edge_6_29: x[6] + x[29] <= 1
 edge_6_31: x[6] + x[31] <= 1
 edge_7_14: x[7] + x[14] <= 1
 edge_7_16: x[7] + x[16] <= 1
 edge_7_17: x[7] + x[17] <= 1
 edge_7_19: x[7] + x[19] <= 1
 edge_7_24: x[7] + x[24] <= 1
 edge_7_35: x[7] + x[35] <= 1
 edge_8_9: x[8] + x[9] <= 1
 edge_8_14: x[8] + x[14] <= 1
 edge_8_15: x[8] + x[15] <= 1
 edge_8_16: x[8] + x[16] <= 1
 edge_8_18: x[8] + x[18] <= 1
 edge_8_19: x[8] + x[19] <= 1
 edge_8_25: x[8] + x[25] <= 1
 edge_8_26: x[8] + x[26] <= 1
 edge_8_30: x[8] + x[30] <= 1
 edge_8_32: x[8] + x[32] <= 1
 edge_9_16: x[9] + x[16] <= 1
 edge_9_26: x[9] + x[26] <= 1
 edge_9_29: x[9] + x[29] <= 1
 edge_9_32: x[9] + x[32] <= 1
 edge_10_12: x[10] + x[12] <= 1
 edge_10_14: x[10] + x[14] <= 1
 edge_10_16: x[10] + x[16] <= 1
 edge_10_17: x[10] + x[17] <= 1
 edge_10_26: x[10] + x[26] <= 1
 edge_10_30: x[10] + x[30] <= 1
 edge_10_31: x[10] + x[31] <= 1
 edge_10_33: x[10] + x[33] <= 1
 edge_11_16: x[11] + x[16] <= 1
 edge_11_17: x[11] + x[17] <= 1
 edge_11_19: x[11] + x[19] <= 1
 edge_11_22: x[11] + x[22] <= 1
 edge_11_23: x[11] + x[23] <= 1
 edge_11_26: x[11] + x[26] <= 1
 edge_11_29: x[11] + x[29] <= 1
 edge_11_32: x[11] + x[32] <= 1
 edge_11_35: x[11] + x[35] <= 1
 edge_12_13: x[12] + x[13] <= 1
 edge_12_14: x[12] + x[14] <= 1
 edge_12_18: x[12] + x[18] <= 1
 edge_12_23: x[12] + x[23] <= 1
 edge_12_24: x[12] + x[24] <= 1
 edge_12_26: x[12] + x[26] <= 1
 edge_12_27: x[12] + x[27] <= 1
 edge_13_16: x[13] + x[16] <= 1
 edge_13_17: x[13] + x[17] <= 1
 edge_13_23: x[13] + x[23] <= 1
 edge_13_24: x[13] + x[24] <= 1
 edge_13_25: x[13] + x[25] <= 1
 edge_13_26: x[13] + x[26] <= 1
 edge_13_35: x[13] + x[35] <= 1
 edge_14_16: x[14] + x[16] <= 1
 edge_14_20: x[14] + x[20] <= 1
 edge_14_21: x[14] + x[21] <= 1
 edge_14_22: x[14] + x[22] <= 1
 edge_14_23: x[14] + x[23] <= 1
 edge_14_27: x[14] + x[27] <= 1
 edge_14_29: x[14] + x[29] <= 1
 edge_14_30: x[14] + x[30] <= 1
 edge_14_32: x[14] + x[32] <= 1
 edge_15_26: x[15] + x[26] <= 1
 edge_15_27: x[15] + x[27] <= 1
 edge_15_30: x[15] + x[30] <= 1
 edge_15_33: x[15] + x[33] <= 1
 edge_16_21: x[16] + x[21] <= 1
 edge_16_22: x[16] + x[22] <= 1
 edge_16_25: x[16] + x[25] <= 1
 edge_16_26: x[16] + x[26] <= 1
 edge_16_28: x[16] + x[28] <= 1
 edge_16_31: x[16] + x[31] <= 1
 edge_16_32: x[16] + x[32] <= 1
 edge_17_18: x[17] + x[18] <= 1
 edge_17_19: x[17] + x[19] <= 1
 edge_17_24: x[17] + x[24] <= 1
 edge_17_25: x[17] + x[25] <= 1
 edge_17_29: x[17] + x[29] <= 1
 edge_17_33: x[17] + x[33] <= 1
 edge_17_35: x[17] + x[35] <= 1
 edge_18_23: x[18] + x[23] <= 1
 edge_18_26: x[18] + x[26] <= 1
 edge_18_31: x[18] + x[31] <= 1
 edge_18_33: x[18] + x[33] <= 1
 edge_18_34: x[18] + x[34] <= 1
 edge_19_21: x[19] + x[21] <= 1
 edge_19_31: x[19] + x[31] <= 1
 edge_19_32: x[19] + x[32] <= 1
 edge_19_34: x[19] + x[34] <= 1
 edge_20_27: x[20] + x[27] <= 1
 edge_20_28: x[20] + x[28] <= 1
 edge_20_32: x[20] + x[32] <= 1
 edge_21_22: x[21] + x[22] <= 1
 edge_21_23: x[21] + x[23] <= 1
 edge_21_27: x[21] + x[27] <= 1
 edge_21_33: x[21] + x[33] <= 1
 edge_22_24: x[22] + x[24] <= 1
 edge_22_26: x[22] + x[26] <= 1
 edge_22_27: x[22] + x[27] <= 1
 edge_22_28: x[22] + x[28] <= 1
 edge_23_31: x[23] + x[31] <= 1
 edge_24_25: x[24] + x[25] <= 1
 edge_24_28: x[24] + x[28] <= 1
 edge_24_33: x[24] + x[33] <= 1
 edge_25_26: x[25] + x[26] <= 1
 edge_25_27: x[25] + x[27] <= 1
 edge_25_29: x[25] + x[29] <= 1
 edge_25_30: x[25] + x[30] <= 1
 edge_25_33: x[25] + x[33] <= 1
 edge_26_28: x[26] + x[28] <= 1
 edge_27_29: x[27] + x[29] <= 1
 edge_27_31: x[27] + x[31] <= 1
 edge_27_34: x[27] + x[34] <= 1
 edge_29_32: x[29] + x[32] <= 1
 edge_30_32: x[30] + x[32] <= 1
 edge_30_33: x[30] + x[33] <= 1
 edge_30_35: x[30] + x[35] <= 1
 edge_31_33: x[31] + x[33] <= 1
 edge_33_35: x[33] + x[35] <= 1
Bounds
Binaries
 x[0] x[1] x[2] x[3] x[4] x[5] x[6] x[7] x[8] x[9] x[10] x[11] x[12] x[13]
 x[14] x[15] x[16] x[17] x[18] x[19] x[20] x[21] x[22] x[23] x[24] x[25]
 x[26] x[27] x[28] x[29] x[30] x[31] x[32] x[33] x[34] x[35]
End
